c ---- [ banner ] ------------------------------------------------------------
c
c Kissat SAT Solver
c 
c Copyright (c) 2021-2024 Armin Biere University of Freiburg
c Copyright (c) 2019-2021 Armin Biere Johannes Kepler University Linz
c 
c Version 4.0.1 43f02cf3e992cb44653b35e5cb26f93281552ae0
c gcc (Ubuntu 13.2.0-23ubuntu4) 13.2.0 -W -Wall -O3 -DNDEBUG
c Thu Sep 12 12:27:46 CEST 2024 Linux abryzen9 6.8.0-41-generic x86_64
c
c ---- [ parsing ] -----------------------------------------------------------
c
c opened and reading DIMACS file:
c
c   /data/artifact/AMulet2.0_artifact/exp4/cnf_mfs_64/64_64_U1_DT_HCA_Multgen_mfs.cnf
c
c parsed 'p cnf 34632 135366' header
c closing input after reading 2635134 bytes (3 MB)
c finished parsing after 0.02 seconds
c
c ---- [ options ] -----------------------------------------------------------
c
c --stable=0                       (different from default '1')
c
c ---- [ solving ] -----------------------------------------------------------
c
c  seconds switched rate     size/glue tier1  binary           remaining
c         MB reductions conflicts size  tier2     irredundant
c          level restarts redundant glue  trail           variables
c
c *  0.02 10 0 0 0  0 0   0   0 0.0 0 0 0 0 0% 27366 107998 34629 100%
c (  0.03 12 0 0 0  0 0   0   0 0.0 0 0 0 0 0% 27366 107998 34629 100%
c .  0.04 12 0 0 0  0 0   0   0 0.0 0 0 0 0 0% 27362 107998 34629 100%
c c  0.09 21 0 0 0  0 0   0   0 0.0 0 0 0 0 0% 34152 94418 31234 90%
c d  0.10 21 0 0 0  0 0   0   0 0.0 0 0 0 0 0% 27362 94418 31234 90%
c =  0.14 21 0 0 0  0 0   0   0 0.0 0 0 0 0 0% 27822 94418 31004 90%
c d  0.14 21 0 0 0  0 0   0   0 0.0 0 0 0 0 0% 27362 94418 31004 90%
c f  0.20 19 0 0 0  0 0   0   0 0.0 0 0 0 0 0% 30313 89706 32765 95%
c e  0.30 27 0 0 0  0 0   0   0 0.0 0 0 0 0 0% 8417 103781 21647 63%
c )  0.30 27 0 0 0  0 0   0   0 0.0 0 0 0 0 0% 8417 103781 21647 63%
c {  0.32 27 0 0 0  0 0   0   0 0.0 0 0 2 6 0% 8417 103781 21647 63%
c -  0.49 29 178 0 1 191 36 1000 764 3.7 23 6 4 12 26% 8438 103781 21647 63%
c -  0.74 29 249 0 2 351 43 2001 1500 4.9 34 7 3 11 28% 8447 103781 21647 63%
c c  0.89 24 270 0 2 376 40 2502 1890 4.8 32 7 3 11 29% 8471 103759 21639 62%
c d  0.89 24 270 0 2 376 40 2502 1886 4.8 32 7 3 11 29% 8455 103759 21639 62%
c u  0.91 24 270 0 2 376 40 2502 1450 4.8 32 7 3 11 29% 8458 103759 21639 62%
c v  0.94 25 270 0 2 376 40 2502 1198 4.8 32 7 3 11 29% 8458 103759 21639 62%
c w  0.95 25 270 0 2 376 40 2502 1197 4.8 32 7 3 11 29% 8458 103759 21639 62%
c x  0.97 25 270 0 2 376 40 2502 1197 4.8 32 7 3 11 29% 8458 103750 21639 62%
c =  1.02 27 270 0 2 376 40 2502 1197 4.8 32 7 3 11 29% 8912 103750 21412 62%
c
c  seconds   switched   rate       size/glue tier1     binary          remaining
c         MB  reductions conflicts       size  tier2      irredundant
c           level restarts    redundant    glue    trail          variables
c
c d  1.03 27 270 0 2 376 40 2502 1193 4.8 32 7 3 11 29% 8458 103750 21412 62%
c f  1.06 27 270 0 2 376 40 2502 1193 4.8 32 7 3 11 29% 9235 102299 22086 64%
c u  1.08 27 270 0 2 376 40 2502 1138 4.8 32 7 3 11 29% 9235 102299 22086 64%
c v  1.09 27 270 0 2 376 40 2502 1091 4.8 32 7 3 11 29% 9235 102299 22086 64%
c w  1.12 27 270 0 2 376 40 2502 1089 4.8 32 7 3 11 29% 9235 102299 22086 64%
c =  1.17 27 270 0 2 376 40 2502 1089 4.8 32 7 3 11 29% 9639 102299 21884 63%
c d  1.18 27 270 0 2 376 40 2502 1087 4.8 32 7 3 11 29% 9160 102299 21884 63%
c f  1.21 27 270 0 2 376 40 2502 1087 4.8 32 7 3 11 29% 9578 101672 22093 64%
c -  1.47 29 264 0 3 526 43 3415 1624 5.0 35 7 3 12 31% 9592 101672 22093 64%
c -  1.69 29 360 0 4 653 39 5147 2708 4.6 30 7 3 11 28% 9652 101672 22093 64%
c -  2.18 29 335 0 5 942 39 7147 3860 4.9 34 7 2 11 29% 9694 101672 22093 64%
c c  2.32 29 328 0 5 993 39 7705 4364 4.9 34 7 2 11 30% 9709 101542 22061 64%
c d  2.33 29 328 0 5 993 39 7705 4361 4.9 34 7 2 11 30% 9643 101542 22060 64%
c u  2.34 29 328 0 5 993 39 7705 3598 4.9 34 7 2 11 30% 9655 101542 22060 64%
c v  2.37 29 328 0 5 993 39 7705 3049 4.9 34 7 2 11 30% 9655 101542 22060 64%
c w  2.41 29 328 0 5 993 39 7705 3046 4.9 34 7 2 11 30% 9655 101542 22060 64%
c x  2.43 29 328 0 5 993 39 7705 3046 4.9 34 7 2 11 30% 9655 100939 22060 64%
c =  2.54 29 328 0 5 993 39 7705 3046 4.9 34 7 2 11 30% 10629 100939 21573 62%
c d  2.54 29 328 0 5 993 39 7705 3031 4.9 34 7 2 11 30% 9513 100939 21573 62%
c t  2.55 29 328 0 5 993 39 7705 3031 4.9 34 7 2 11 30% 9507 100939 21573 62%
c
c  seconds   switched   rate       size/glue tier1     binary          remaining
c         MB  reductions conflicts       size  tier2       irredundant
c           level restarts    redundant    glue    trail          variables
c
c f  2.59 29 328 0 5 993 39 7705 3031 4.9 34 7 2 11 30% 11582 97825 22611 65%
c u  2.65 29 328 0 5 993 39 7705 2833 4.9 34 7 2 11 30% 11583 97825 22611 65%
c v  2.67 29 328 0 5 993 39 7705 2715 4.9 34 7 2 11 30% 11583 97825 22611 65%
c w  2.70 29 328 0 5 993 39 7705 2709 4.9 34 7 2 11 30% 11583 97825 22611 65%
c x  2.73 29 328 0 5 993 39 7705 2709 4.9 34 7 2 11 30% 11583 91902 22611 65%
c =  2.84 29 328 0 5 993 39 7705 2709 4.9 34 7 2 11 30% 12143 91900 22331 64%
c d  2.85 29 328 0 5 993 39 7705 2684 4.9 34 7 2 11 30% 11517 91900 22331 64%
c t  2.86 29 328 0 5 993 39 7705 2684 4.9 34 7 2 11 30% 11499 91900 22331 64%
c f  2.90 29 328 0 5 993 39 7705 2684 4.9 34 7 2 11 30% 11561 91807 22362 65%
c -  3.20 29 329 0 6 1130 37 9383 3597 4.7 33 7 2 11 30% 11592 91807 22362 65%
c o  3.39 29 325 0 6 1233 37 10072 4197 4.7 33 7 2 11 30% 11612 91807 22362 65%
c -  3.65 29 344 0 7 1353 37 11833 4971 4.7 33 7 2 10 30% 11642 91807 22362 65%
c s  3.72 29 349 0 7 1368 36 12505 5589 4.6 31 7 2 10 30% 11652 90815 22362 65%
c e  3.80 29 349 0 7 1368 36 12505 5589 4.6 31 7 2 10 30% 9996 91836 20904 60%
c s  3.81 29 349 0 7 1368 36 12505 5589 4.6 31 7 2 10 30% 9997 90678 20904 60%
c e  3.82 29 349 0 7 1368 36 12505 5589 4.6 31 7 2 10 30% 9995 90680 20898 60%
c ^  3.82 29 349 0 7 1368 36 12505 5589 4.6 31 7 2 10 30% 9995 90680 20898 60%
c -  4.21 29 334 0 8 1571 35 14479 5891 4.6 32 7 2 9 29% 10056 90680 20898 60%
c d  4.34 29 339 0 8 1614 34 15781 6950 4.5 31 7 2 9 29% 9813 90680 20721 60%
c u  4.36 29 339 0 8 1614 34 15781 5560 4.5 31 7 2 9 29% 9824 90680 20721 60%
c
c  seconds   switched    rate        size/glue tier1    binary         remaining
c         MB  reductions   conflicts       size  tier2     irredundant
c           level  restarts     redundant    glue   trail         variables
c
c v  4.39 29 339 0 8 1614 34 15781 4793 4.5 31 7 2 9 29% 9826 90680 20721 60%
c w  4.43 29 339 0 8 1614 34 15781 4774 4.5 31 7 2 9 29% 9826 90680 20721 60%
c x  4.46 29 339 0 8 1614 34 15781 4774 4.5 31 7 2 9 29% 9827 90109 20721 60%
c =  4.61 29 339 0 8 1614 34 15781 4774 4.5 31 7 2 9 29% 11949 90109 19660 57%
c d  4.62 29 339 0 8 1614 34 15781 4672 4.5 31 7 2 9 29% 9405 90109 19660 57%
c t  4.63 29 339 0 8 1614 34 15781 4672 4.5 31 7 2 9 29% 9389 90109 19660 57%
c f  4.67 29 339 0 8 1614 34 15781 4672 4.5 31 7 2 9 29% 9391 90104 19661 57%
c c  4.72 29 339 0 8 1614 34 15781 4672 4.5 31 7 2 9 29% 9395 90096 19659 57%
c d  4.72 29 339 0 8 1614 34 15781 4672 4.5 31 7 2 9 29% 9391 90096 19659 57%
c u  4.74 29 339 0 8 1614 34 15781 4275 4.5 31 7 2 9 29% 9393 90096 19659 57%
c v  4.76 29 339 0 8 1614 34 15781 4148 4.5 31 7 2 9 29% 9393 90096 19659 57%
c w  4.79 29 339 0 8 1614 34 15781 4141 4.5 31 7 2 9 29% 9393 90096 19659 57%
c x  4.84 29 339 0 8 1614 34 15781 4138 4.5 31 7 2 9 29% 9393 87746 19659 57%
c =  4.98 29 339 0 8 1614 34 15781 4138 4.5 31 7 2 9 29% 11029 87746 18841 54%
c d  4.98 29 339 0 8 1614 34 15781 4096 4.5 31 7 2 9 29% 9162 87746 18841 54%
c -  5.25 29 342 0 9 1750 34 17307 4804 4.5 31 7 2 9 29% 9175 87746 18841 54%
c o  5.67 29 329 0 9 1960 33 20074 7322 4.5 31 7 2 9 29% 9217 87746 18841 54%
c -  5.73 29 326 0 10 1995 33 20307 6686 4.5 31 7 2 8 29% 9220 87746 18841 54%
c -  6.21 29 322 0 11 2238 32 23471 8470 4.5 31 7 2 8 29% 9269 87746 18841 54%
c s  6.39 29 315 0 11 2324 31 25006 9765 4.4 31 7 2 8 28% 9300 86065 18841 54%
c
c  seconds   switched     rate        size/glue tier1    binary         remaining
c         MB   reductions   conflicts       size  tier2     irredundant
c           level   restarts     redundant    glue   trail         variables
c
c e  6.48 29 315 0 11 2324 31 25006 9765 4.4 31 7 2 8 28% 7841 89677 15969 46%
c s  6.50 29 315 0 11 2324 31 25006 9765 4.4 31 7 2 8 28% 7847 85543 15969 46%
c e  6.53 29 315 0 11 2324 31 25006 9765 4.4 31 7 2 8 28% 7828 85574 15953 46%
c ^  6.53 29 315 0 11 2324 31 25006 9765 4.4 31 7 2 8 28% 7828 85574 15953 46%
c -  6.74 29 300 0 12 2406 30 26788 8005 4.3 29 7 2 7 29% 7850 85574 15953 46%
c d  6.79 29 299 0 12 2435 30 26909 8107 4.2 29 7 2 7 29% 7750 85574 15889 46%
c u  6.81 29 299 0 12 2435 30 26909 6703 4.2 29 7 2 7 29% 7758 85574 15889 46%
c v  6.83 29 299 0 12 2435 30 26909 5713 4.2 29 7 2 7 29% 7759 85574 15889 46%
c w  6.84 29 299 0 12 2435 30 26909 5705 4.2 29 7 2 7 29% 7759 85574 15889 46%
c x  6.91 29 299 0 12 2435 30 26909 5705 4.2 29 7 2 7 29% 7759 82939 15889 46%
c =  7.09 29 299 0 12 2435 30 26909 5705 4.2 29 7 2 7 29% 9911 82912 14812 43%
c d  7.10 29 299 0 12 2435 30 26909 5516 4.2 29 7 2 7 29% 7633 82912 14811 43%
c t  7.11 29 299 0 12 2435 30 26909 5516 4.2 29 7 2 7 29% 7629 82912 14811 43%
c f  7.17 29 299 0 12 2435 30 26909 5516 4.2 29 7 2 7 29% 7620 82888 14819 43%
c u  7.20 29 299 0 12 2435 30 26909 5063 4.2 29 7 2 7 29% 7620 82888 14819 43%
c v  7.21 29 299 0 12 2435 30 26909 4925 4.2 29 7 2 7 29% 7620 82888 14819 43%
c w  7.22 29 299 0 12 2435 30 26909 4925 4.2 29 7 2 7 29% 7620 82888 14819 43%
c x  7.30 29 299 0 12 2435 30 26909 4924 4.2 29 7 2 7 29% 7620 75525 14819 43%
c =  7.46 29 299 0 12 2435 30 26909 4924 4.2 29 7 2 7 29% 7670 75523 14794 43%
c d  7.47 29 299 0 12 2435 30 26909 4924 4.2 29 7 2 7 29% 7615 75523 14794 43%
c
c  seconds   switched     rate        size/glue tier1    binary         remaining
c         MB   reductions   conflicts       size  tier2     irredundant
c           level   restarts     redundant    glue   trail         variables
c
c -  7.86 29 276 0 13 2644 28 30252 6982 4.0 28 7 2 8 29% 7638 75523 14794 43%
c -  8.20 29 257 0 14 2865 27 33857 9022 3.9 26 7 2 7 28% 7670 75519 14794 43%
c -  8.48 29 253 0 15 3052 26 37601 10766 3.7 25 7 2 7 27% 7703 75519 14794 43%
c o  8.76 29 244 0 15 3225 25 40110 12997 3.7 25 7 2 7 27% 7721 75518 14794 43%
c c  8.99 29 244 0 15 3375 26 41251 14055 3.7 25 7 2 7 28% 7770 75294 14740 43%
c d  9.00 29 244 0 15 3375 26 41251 13781 3.7 25 7 2 7 28% 7611 75294 14706 42%
c u  9.04 29 244 0 15 3375 26 41251 11909 3.7 25 7 2 7 28% 7631 75294 14706 42%
c v  9.07 29 244 0 15 3375 26 41251 10916 3.7 25 7 2 7 28% 7632 75294 14706 42%
c w  9.10 29 244 0 15 3375 26 41251 10916 3.7 25 7 2 7 28% 7632 75294 14706 42%
c x  9.13 29 244 0 15 3375 26 41251 10916 3.7 25 7 2 7 28% 7632 74999 14706 42%
c =  9.30 29 244 0 15 3375 26 41251 10916 3.7 25 7 2 7 28% 9457 74985 13792 40%
c d  9.31 29 244 0 15 3375 26 41251 10356 3.7 25 7 2 7 28% 7500 74985 13792 40%
c t  9.32 29 244 0 15 3375 26 41251 10356 3.7 25 7 2 7 28% 7496 74985 13792 40%
c f  9.34 29 244 0 15 3375 26 41251 10356 3.7 25 7 2 7 28% 7502 74970 13795 40%
c u  9.37 29 244 0 15 3375 26 41251 9541 3.7 25 7 2 7 28% 7502 74970 13795 40%
c v  9.40 29 244 0 15 3375 26 41251 8766 3.7 25 7 2 7 28% 7502 74970 13795 40%
c w  9.45 29 244 0 15 3375 26 41251 8765 3.7 25 7 2 7 28% 7502 74970 13795 40%
c x  9.50 29 244 0 15 3375 26 41251 8765 3.7 25 7 2 7 28% 7502 70420 13795 40%
c -  9.68 29 244 0 16 3375 26 41473 7817 3.7 25 7 2 7 27% 7499 70420 13795 40%
c - 10.09 29 233 0 17 3595 25 45478 10138 3.6 24 7 2 7 27% 7515 70416 13795 40%
c
c  seconds   switched     rate         size/glue tier1    binary         remaining
c         MB   reductions   conflicts        size  tier2     irredundant
c           level   restarts      redundant    glue   trail         variables
c
c i 10.26 29 229 0 17 3761 25 46869 11346 3.6 24 7 2 7 26% 7526 70416 13794 40%
c - 10.49 29 226 0 18 3929 24 49601 12330 3.5 23 7 2 7 26% 7538 70415 13794 40%
c s 10.92 29 226 0 18 4277 25 52110 14681 3.5 24 7 2 7 27% 7547 69368 13794 40%
c e 10.98 29 226 0 18 4277 25 52110 14681 3.5 24 7 2 7 27% 6637 71001 13065 38%
c s 10.99 29 226 0 18 4277 25 52110 14681 3.5 24 7 2 7 27% 6639 70771 13065 38%
c e 11.00 29 226 0 18 4277 25 52110 14681 3.5 24 7 2 7 27% 6633 70781 13059 38%
c ^ 11.00 29 226 0 18 4277 25 52110 14681 3.5 24 7 2 7 27% 6633 70781 13059 38%
c - 11.27 29 221 0 19 4511 24 53843 13245 3.4 23 7 2 6 27% 6635 70781 13059 38%
c - 11.70 29 212 0 20 4807 24 58201 15116 3.3 23 7 2 6 27% 6660 70781 13059 38%
c c 11.79 29 211 0 20 4843 24 58914 15726 3.3 22 7 2 6 27% 6702 70585 13028 38%
c d 11.80 29 211 0 20 4843 24 58914 15603 3.3 22 7 2 6 27% 6640 70585 13028 38%
c u 11.84 29 211 0 20 4843 24 58914 13191 3.3 22 7 2 6 27% 6651 70585 13028 38%
c v 11.89 29 211 0 20 4843 24 58914 11581 3.3 22 7 2 6 27% 6652 70585 13028 38%
c w 11.90 29 211 0 20 4843 24 58914 11551 3.3 22 7 2 6 27% 6653 70585 13028 38%
c x 11.96 29 211 0 20 4843 24 58914 11551 3.3 22 7 2 6 27% 6653 70453 13028 38%
c d 11.96 29 211 0 20 4843 24 58914 11550 3.3 22 7 2 6 27% 6647 70445 13025 38%
c t 11.97 29 211 0 20 4843 24 58914 11550 3.3 22 7 2 6 27% 6643 70445 13025 38%
c f 12.00 29 211 0 20 4843 24 58914 11550 3.3 22 7 2 6 27% 6645 70435 13026 38%
c c 12.03 29 211 0 20 4843 24 58914 11547 3.3 22 7 2 6 27% 6647 70427 13025 38%
c d 12.03 29 211 0 20 4843 24 58914 11547 3.3 22 7 2 6 27% 6645 70427 13025 38%
c
c  seconds   switched     rate         size/glue tier1    binary         remaining
c         MB   reductions   conflicts        size  tier2     irredundant
c           level   restarts      redundant    glue   trail         variables
c
c u 12.07 29 211 0 20 4843 24 58914 11164 3.3 22 7 2 6 27% 6645 70427 13025 38%
c v 12.09 29 211 0 20 4843 24 58914 10926 3.3 22 7 2 6 27% 6645 70427 13025 38%
c w 12.10 29 211 0 20 4843 24 58914 10905 3.3 22 7 2 6 27% 6645 70427 13025 38%
c = 12.33 29 211 0 20 4843 24 58914 10905 3.3 22 7 2 6 27% 6825 70427 12935 37%
c d 12.34 29 211 0 20 4843 24 58914 10869 3.3 22 7 2 6 27% 6633 70427 12935 37%
c - 12.81 29 205 0 21 5039 23 62673 12564 3.2 22 7 2 6 27% 6675 70427 12935 37%
c - 13.35 29 197 0 22 5463 23 67256 14829 3.2 22 7 2 6 27% 6690 70427 12935 37%
c o 13.75 29 194 0 22 5864 23 70113 17397 3.1 21 7 2 6 27% 6710 70427 12935 37%
c - 13.97 29 192 0 23 6094 23 71947 16681 3.1 21 7 2 6 27% 6723 70427 12935 37%
c - 14.89 29 191 0 24 6866 24 76743 18348 3.1 22 7 2 6 27% 6771 70427 12935 37%
c d 15.37 29 193 0 24 7278 24 80016 21068 3.2 23 7 2 6 27% 6714 70427 12887 37%
c u 15.44 29 193 0 24 7278 24 80016 17763 3.2 23 7 2 6 27% 6751 70427 12887 37%
c v 15.50 29 193 0 24 7278 24 80016 15651 3.2 23 7 2 6 27% 6757 70427 12887 37%
c w 15.57 29 193 0 24 7278 24 80016 15651 3.2 23 7 2 6 27% 6757 70427 12887 37%
c x 15.63 29 193 0 24 7278 24 80016 15649 3.2 23 7 2 6 27% 6757 69491 12887 37%
c = 15.74 29 193 0 24 7278 24 80016 15649 3.2 23 7 2 6 27% 6883 69491 12824 37%
c d 15.74 29 193 0 24 7278 24 80016 15570 3.2 23 7 2 6 27% 6709 69491 12808 37%
c t 15.75 29 193 0 24 7278 24 80016 15570 3.2 23 7 2 6 27% 6702 69491 12808 37%
c c 15.79 29 193 0 24 7278 24 80016 15564 3.2 23 7 2 6 27% 6720 69408 12798 37%
c d 15.80 29 193 0 24 7278 24 80016 15549 3.2 23 7 2 6 27% 6700 69408 12798 37%
c
c  seconds   switched     rate         size/glue tier1    binary         remaining
c         MB   reductions   conflicts        size  tier2     irredundant
c           level   restarts      redundant    glue   trail         variables
c
c u 15.84 29 193 0 24 7278 24 80016 14879 3.2 23 7 2 6 27% 6708 69408 12798 37%
c v 15.88 29 193 0 24 7278 24 80016 14529 3.2 23 7 2 6 27% 6708 69408 12798 37%
c w 15.99 29 193 0 24 7278 24 80016 14503 3.2 23 7 2 6 27% 6708 69408 12798 37%
c x 16.07 29 193 0 24 7278 24 80016 14503 3.2 23 7 2 6 27% 6708 68616 12798 37%
c = 16.41 29 193 0 24 7278 24 80016 14503 3.2 23 7 2 6 27% 7440 68602 12430 36%
c d 16.42 29 193 0 24 7278 24 80016 14093 3.2 23 7 2 6 27% 6626 68602 12430 36%
c - 16.65 29 191 0 25 7411 24 81641 13866 3.1 23 7 2 6 27% 6629 68602 12430 36%
c - 17.16 29 187 0 26 7776 24 86641 16467 3.1 22 7 2 6 27% 6639 68602 12430 36%
c - 17.84 29 184 0 27 8321 24 91740 17210 3.0 22 7 1 6 27% 6647 68602 12430 36%
c s 18.38 29 183 0 27 8755 24 95859 20862 3.0 22 7 1 6 27% 6675 66880 12430 36%
c e 18.45 29 183 0 27 8755 24 95859 20862 3.0 22 7 1 6 27% 4559 72540 11239 32%
c s 18.47 29 183 0 27 8755 24 95859 20862 3.0 22 7 1 6 27% 4560 72406 11239 32%
c e 18.47 29 183 0 27 8755 24 95859 20862 3.0 22 7 1 6 27% 4556 72439 11208 32%
c ^ 18.47 29 183 0 27 8755 24 95859 20862 3.0 22 7 1 6 27% 4556 72439 11208 32%
c - 18.69 29 182 0 28 8930 24 96936 15370 3.0 22 7 1 5 28% 4560 72439 11208 32%
c - 19.42 29 181 0 29 9515 24 102227 16836 3.0 22 7 1 5 27% 4613 72435 11208 32%
c d 19.91 29 179 0 29 9833 24 104684 18955 3.0 22 7 1 5 28% 4568 72435 11181 32%
c u 19.97 29 179 0 29 9833 24 104684 16504 3.0 22 7 1 5 28% 4586 72435 11181 32%
c v 20.02 29 179 0 29 9833 24 104684 13787 3.0 22 7 1 5 28% 4594 72435 11181 32%
c w 20.13 29 179 0 29 9833 24 104684 13701 3.0 22 7 1 5 28% 4594 72435 11181 32%
c
c  seconds   switched     rate          size/glue tier1    binary         remaining
c         MB   reductions   conflicts         size  tier2     irredundant
c           level   restarts       redundant    glue   trail         variables
c
c x 20.19 29 179 0 29 9833 24 104684 13701 3.0 22 7 1 5 28% 4594 72372 11181 32%
c = 20.58 29 179 0 29 9833 24 104684 13701 3.0 22 7 1 5 28% 4859 72342 11046 32%
c d 20.58 29 179 0 29 9833 24 104684 13340 3.0 22 7 1 5 28% 4547 72342 11045 32%
c t 20.60 29 179 0 29 9833 24 104684 13340 3.0 22 7 1 5 28% 4543 72342 11045 32%
c u 20.69 29 179 0 29 9833 24 104684 12792 3.0 22 7 1 5 28% 4546 72342 11045 32%
c v 20.73 29 179 0 29 9833 24 104684 12191 3.0 22 7 1 5 28% 4550 72342 11045 32%
c w 20.87 29 179 0 29 9833 24 104684 11839 3.0 22 7 1 5 28% 4550 72342 11045 32%
c = 21.30 29 179 0 29 9833 24 104684 11839 3.0 22 7 1 5 28% 4630 72342 11005 32%
c d 21.30 29 179 0 29 9833 24 104684 11757 3.0 22 7 1 5 28% 4528 72342 11005 32%
c - 21.74 29 176 0 30 10125 24 107613 12222 3.0 22 7 1 5 28% 4536 72342 11005 32%
c o 22.08 29 175 0 30 10297 24 110116 14509 3.0 22 7 1 5 28% 4540 72342 11005 32%
c - 22.73 29 174 0 31 10701 24 113090 14939 3.0 22 8 1 5 28% 4547 72342 11005 32%
c i 22.84 29 174 0 31 10776 24 114306 15950 3.0 22 8 1 5 28% 4560 72342 11004 32%
c i 23.57 29 171 0 31 11271 24 118627 19902 3.0 23 8 1 5 28% 4581 72342 11003 32%
c - 23.57 29 171 0 32 11272 24 118658 16919 3.0 23 8 1 5 28% 4577 72342 11003 32%
c i 23.62 29 170 0 32 11308 24 118921 17149 3.0 23 8 1 5 28% 4580 72342 11001 32%
c i 23.62 29 170 0 32 11309 24 118927 17149 3.0 23 8 1 5 28% 4582 72342 10996 32%
c i 23.82 29 170 0 32 11478 24 120265 18341 3.0 23 8 1 5 28% 4599 72342 10994 32%
c i 23.96 29 169 0 32 11588 24 121143 19137 3.0 23 8 1 5 28% 4602 72342 10992 32%
c i 24.00 29 169 0 32 11620 24 121403 19363 3.0 23 8 1 5 28% 4605 72342 10991 32%
c
c  seconds   switched      rate          size/glue tier1    binary         remaining
c         MB   reductions    conflicts         size  tier2     irredundant
c           level   restarts        redundant    glue   trail         variables
c
c i 24.21 29 167 0 32 11751 23 123268 21080 2.9 23 8 1 5 28% 4614 72342 10989 32%
c i 24.24 29 167 0 32 11773 23 123412 21182 2.9 23 8 1 5 28% 4618 72342 10988 32%
c - 24.38 29 167 0 33 11862 23 124315 18025 2.9 23 8 1 5 28% 4629 72342 10988 32%
c i 24.43 29 166 0 33 11901 23 124574 18238 2.9 23 8 1 5 28% 4635 72342 10986 32%
c i 24.59 29 167 0 33 12014 23 126986 20181 2.9 23 8 1 5 28% 4675 72342 10985 32%
c i 24.66 29 167 0 33 12061 23 127326 20497 2.9 23 8 1 5 28% 4678 72342 10984 32%
c i 24.75 29 166 0 33 12116 23 127828 20961 2.9 22 8 1 5 28% 4683 72342 10983 32%
c i 24.78 29 166 0 33 12132 23 127985 21107 2.9 23 8 1 5 28% 4685 72342 10982 32%
c i 24.78 29 166 0 33 12132 23 127992 21106 2.9 23 8 1 5 28% 4686 72342 10981 32%
c i 24.79 29 166 0 33 12145 23 128097 21177 2.9 23 8 1 5 28% 4691 72342 10980 32%
c - 24.96 29 165 0 34 12265 23 130063 18832 2.9 22 8 1 5 28% 4692 72342 10980 32%
c c 25.26 29 163 0 34 12484 22 132976 21433 2.9 22 8 1 5 28% 4755 71550 10870 31%
c d 25.26 29 163 0 34 12484 22 132976 20981 2.9 22 8 1 5 28% 4573 71512 10870 31%
c d 25.26 29 163 0 34 12484 22 132976 20952 2.9 22 8 1 5 28% 4535 71512 10851 31%
c u 25.30 29 163 0 34 12484 22 132976 18835 2.9 22 8 1 5 28% 4546 71512 10851 31%
c v 25.37 29 163 0 34 12484 22 132976 15503 2.9 22 8 1 5 28% 4557 71512 10851 31%
c w 25.46 29 163 0 34 12484 22 132976 15351 2.9 22 8 1 5 28% 4557 71512 10851 31%
c x 25.52 29 163 0 34 12484 22 132976 15351 2.9 22 8 1 5 28% 4557 71500 10851 31%
c = 25.96 29 163 0 34 12484 22 132976 15351 2.9 22 8 1 5 28% 4571 71500 10844 31%
c d 25.96 29 163 0 34 12484 22 132976 15329 2.9 22 8 1 5 28% 4535 71500 10836 31%
c
c  seconds   switched      rate          size/glue tier1    binary         remaining
c         MB   reductions    conflicts         size  tier2     irredundant
c           level   restarts        redundant    glue   trail         variables
c
c u 26.01 29 163 0 34 12484 22 132976 14967 2.9 22 8 1 5 28% 4537 71500 10836 31%
c v 26.06 29 163 0 34 12484 22 132976 14426 2.9 22 8 1 5 28% 4537 71500 10836 31%
c w 26.16 29 163 0 34 12484 22 132976 14002 2.9 22 8 1 5 28% 4538 71500 10836 31%
c = 26.59 29 163 0 34 12484 22 132976 14002 2.9 22 8 1 5 28% 4598 71496 10806 31%
c d 26.60 29 163 0 34 12484 22 132976 13951 2.9 22 8 1 5 28% 4531 71496 10805 31%
c i 26.65 29 163 0 34 12517 22 133484 14414 2.9 22 8 1 5 28% 4536 71495 10804 31%
c i 26.78 29 161 0 34 12611 22 135094 15829 2.8 22 8 1 5 28% 4549 71495 10803 31%
c i 26.84 29 161 0 34 12661 22 135833 16515 2.8 22 8 1 5 28% 4555 71495 10801 31%
c - 26.85 29 161 0 35 12669 22 135894 13413 2.8 22 8 1 5 28% 4548 71495 10801 31%
c i 27.09 29 156 0 35 12916 21 140643 17451 2.8 22 8 1 5 27% 4598 71493 10799 31%
c i 27.09 29 156 0 35 12916 21 140705 17472 2.8 22 8 1 5 27% 4602 71493 10797 31%
c i 27.09 29 156 0 35 12916 21 140917 17594 2.8 22 8 1 5 27% 4609 71493 10796 31%
c i 27.10 29 156 0 35 12916 21 141096 17717 2.8 22 8 1 5 27% 4613 71493 10795 31%
c - 27.12 29 155 0 36 12929 21 141812 15033 2.8 22 8 1 5 27% 4620 71493 10795 31%
c i 27.19 29 153 0 36 13020 20 143983 16917 2.8 22 8 1 5 27% 4632 71492 10794 31%
c i 27.19 29 152 0 36 13024 20 144063 16962 2.8 21 8 1 5 27% 4636 71492 10793 31%
c i 27.19 29 152 0 36 13026 20 144301 17127 2.8 21 8 1 5 27% 4644 71492 10791 31%
c i 27.20 29 152 0 36 13049 20 144739 17499 2.8 21 8 1 5 27% 4650 71492 10790 31%
c i 27.20 29 151 0 36 13052 20 144814 17541 2.8 21 8 1 5 27% 4656 71492 10789 31%
c i 27.22 29 150 0 36 13070 20 145493 18136 2.8 21 8 1 5 26% 4661 71492 10788 31%
c
c  seconds   switched      rate          size/glue tier1    binary         remaining
c         MB   reductions    conflicts         size  tier2     irredundant
c           level   restarts        redundant    glue   trail         variables
c
c i 27.22 29 150 0 36 13075 20 145869 18403 2.8 21 8 1 5 26% 4665 71492 10787 31%
c } 27.22 29 150 0 36 13075 20 145920 18427 2.8 21 8 1 5 26% 4671 71492 10767 31%
c 0 27.22 29 150 0 36 13075 20 145920 18427 2.8 21 8 1 5 26% 4671 71492 10767 31%
c
c ---- [ result ] ------------------------------------------------------------
c
s UNSATISFIABLE
c
c ---- [ profiling ] ---------------------------------------------------------
c
c          18.84   69.21 %  search
c          18.84   69.21 %  focused
c           8.07   29.63 %  simplify
c           7.76   28.50 %  probe
c           3.71   13.62 %  sweep
c           2.69    9.88 %  vivify
c           0.48    1.76 %  factor
c           0.47    1.74 %  eliminate
c           0.41    1.50 %  congruence
c           0.35    1.27 %  substitute
c           0.27    0.99 %  preprocess
c           0.14    0.53 %  reduce
c           0.10    0.36 %  fastel
c           0.09    0.34 %  transitive
c           0.08    0.30 %  subsume
c           0.04    0.13 %  backbone
c           0.02    0.09 %  lucky
c           0.02    0.08 %  parse
c =============================================
c          27.22  100.00 %  total
c
c ---- [ statistics ] --------------------------------------------------------
c
c chronological:                         4537                3 %  conflicts
c conflicts:                           145920             5360.58 per second
c congruent:                             3643               11 %  variables
c decisions:                          3011908               20.64 per conflict
c eliminated:                           17427               50 %  variables
c factored:                              3726               11 %  variables
c fast_eliminated:                      11118               64 %  eliminated
c fast_strengthened:                        1                0 %  per strengthened
c fast_subsumed:                           54                0 %  per subsumed
c iterations:                              32                0 %  variables
c propagations:                     129745928          4766405    per second
c reductions:                              36             4053    interval
c reordered:                                5            29184    interval
c restarts:                             13075               11    interval
c strengthened:                          3357                0 %  checks
c substituted:                          10089               29 %  variables
c subsumed:                             11135                0 %  checks
c switched:                                 0                0    interval
c vivified:                             73445               13 %  checks
c
c ---- [ glue usage ] --------------------------------------------------------
c
c focused glue 1 used 195931 clauses 55.86% accumulated 55.86% tier1
c focused glue 2 used  77268 clauses 22.03% accumulated 77.89%
c focused glue 3 used  22890 clauses  6.53% accumulated 84.42%
c focused glue 4 used  13116 clauses  3.74% accumulated 88.16%
c focused glue 5 used   9001 clauses  2.57% accumulated 90.73% tier2
c
c ---- [ resources ] ---------------------------------------------------------
c
c maximum-resident-set-size:         30744576 bytes         29 MB
c process-time:                            27s              27.22 seconds
c
c ---- [ shutting down ] -----------------------------------------------------
c
c exit 20
